Maximize
  0.0649265171602992 Z_130_7_0 + 0.0514674968159117 Z_130_7_1
   + 0.0228469316588302 Z_130_7_2 + 0.0309744234989641 Z_130_7_3
   + 0.729784630865995 Z_130_7_4 + 0.00443067186598177 Z_130_2_0
   + 0.0201460208320751 Z_130_2_1 + 0.0110453257062985 Z_130_2_2
   + 0.01220699503268 Z_130_2_3 + 0.8521709865629645 Z_130_2_4
   + 5.9681128236282045e-04 Z_130_4_0 + 0.00220038675181323 Z_130_4_1
   + 0.4776300569260317 Z_130_4_2 + 9.5605477563361877e-04 Z_130_4_3
   + 0.4186166902641585 Z_130_4_4 + 0.8034336610471901 Z_130_5_0
   + 0.0158790026423222 Z_130_5_1 + 0.00822325650871493 Z_130_5_2
   + 0.00831530838475737 Z_130_5_3 + 0.0641487714170155 Z_130_5_4
   + 0.0649265171602992 Z_130_1_0 + 0.0514674968159117 Z_130_1_1
   + 0.0228469316588302 Z_130_1_2 + 0.0309744234989641 Z_130_1_3
   + 0.729784630865995 Z_130_1_4 + 0.0231945499861042 Z_130_6_0
   + 0.1283710855641847 Z_130_6_1 + 0.0032925452024784 Z_130_6_2
   + 0.0388664269448133 Z_130_6_3 + 0.7062753923024193 Z_130_6_4
   + 4.9417182455485718e-04 Z_130_0_0 + 0.00269089072615204 Z_130_0_1
   + 0.7894609395332609 Z_130_0_2 + 0.00130514457098429 Z_130_0_3
   + 0.1060488533450479 Z_130_0_4 + 0.000331563 Z_111_0_0
   + 0.0022649287734305 Z_111_0_1 + 0.6682401553743609 Z_111_0_2
   + 5.6979615271539298e-04 Z_111_0_3 + 0.2285935566871212 Z_111_0_4
   + 0.00234709055828433 Z_397_0_0 + 0.00176240388420541 Z_397_0_1
   + 0.8756347700080762 Z_397_0_2 + 0.00955830200025926 Z_397_0_3
   + 0.0106974335491748 Z_397_0_4 + [
   0.00127696652845382 Z_130_4_0 * Z_397_0_0
   + 0.00127696652845382 Z_130_4_1 * Z_397_0_1
   + 0.00127696652845382 Z_130_4_2 * Z_397_0_2
   + 0.00127696652845382 Z_130_4_3 * Z_397_0_3
   + 0.00127696652845382 Z_130_4_4 * Z_397_0_4
   + 3.2653061224489785e-04 Z_130_0_0 * Z_111_0_0
   + 0.00229753820884162 Z_130_0_0 * Z_397_0_0
   + 3.2653061224489785e-04 Z_130_0_1 * Z_111_0_1
   + 0.00229753820884162 Z_130_0_1 * Z_397_0_1
   + 3.2653061224489785e-04 Z_130_0_2 * Z_111_0_2
   + 0.00229753820884162 Z_130_0_2 * Z_397_0_2
   + 3.2653061224489785e-04 Z_130_0_3 * Z_111_0_3
   + 0.00229753820884162 Z_130_0_3 * Z_397_0_3
   + 3.2653061224489785e-04 Z_130_0_4 * Z_111_0_4
   + 0.00229753820884162 Z_130_0_4 * Z_397_0_4 ] / 2 
Subject To
 constraint1_1307: Z_130_7_0 + Z_130_7_1 + Z_130_7_2 + Z_130_7_3
   + Z_130_7_4 <= 1
 constraint1_1302: Z_130_2_0 + Z_130_2_1 + Z_130_2_2 + Z_130_2_3
   + Z_130_2_4 <= 1
 constraint1_1304: Z_130_4_0 + Z_130_4_1 + Z_130_4_2 + Z_130_4_3
   + Z_130_4_4 <= 1
 constraint1_1305: Z_130_5_0 + Z_130_5_1 + Z_130_5_2 + Z_130_5_3
   + Z_130_5_4 <= 1
 constraint1_1301: Z_130_1_0 + Z_130_1_1 + Z_130_1_2 + Z_130_1_3
   + Z_130_1_4 <= 1
 constraint1_1306: Z_130_6_0 + Z_130_6_1 + Z_130_6_2 + Z_130_6_3
   + Z_130_6_4 <= 1
 constraint1_1300: Z_130_0_0 + Z_130_0_1 + Z_130_0_2 + Z_130_0_3
   + Z_130_0_4 <= 1
 constraint1_1110: Z_111_0_0 + Z_111_0_1 + Z_111_0_2 + Z_111_0_3
   + Z_111_0_4 <= 1
 constraint1_3970: Z_397_0_0 + Z_397_0_1 + Z_397_0_2 + Z_397_0_3
   + Z_397_0_4 <= 1
 constraint2_1300: Z_130_7_0 + Z_130_2_0 + Z_130_4_0 + Z_130_5_0
   + Z_130_1_0 + Z_130_6_0 + Z_130_0_0 <= 1
 constraint2_1301: Z_130_7_1 + Z_130_2_1 + Z_130_4_1 + Z_130_5_1
   + Z_130_1_1 + Z_130_6_1 + Z_130_0_1 <= 1
 constraint2_1302: Z_130_7_2 + Z_130_2_2 + Z_130_4_2 + Z_130_5_2
   + Z_130_1_2 + Z_130_6_2 + Z_130_0_2 <= 1
 constraint2_1303: Z_130_7_3 + Z_130_2_3 + Z_130_4_3 + Z_130_5_3
   + Z_130_1_3 + Z_130_6_3 + Z_130_0_3 <= 1
 constraint2_1110: Z_111_0_0 <= 1
 constraint2_1111: Z_111_0_1 <= 1
 constraint2_1112: Z_111_0_2 <= 1
 constraint2_1113: Z_111_0_3 <= 1
 constraint2_3970: Z_397_0_0 <= 1
 constraint2_3971: Z_397_0_1 <= 1
 constraint2_3972: Z_397_0_2 <= 1
 constraint2_3973: Z_397_0_3 <= 1
Bounds
Binaries
 Z_130_7_0 Z_130_7_1 Z_130_7_2 Z_130_7_3 Z_130_7_4 Z_130_2_0 Z_130_2_1
 Z_130_2_2 Z_130_2_3 Z_130_2_4 Z_130_4_0 Z_130_4_1 Z_130_4_2 Z_130_4_3
 Z_130_4_4 Z_130_5_0 Z_130_5_1 Z_130_5_2 Z_130_5_3 Z_130_5_4 Z_130_1_0
 Z_130_1_1 Z_130_1_2 Z_130_1_3 Z_130_1_4 Z_130_6_0 Z_130_6_1 Z_130_6_2
 Z_130_6_3 Z_130_6_4 Z_130_0_0 Z_130_0_1 Z_130_0_2 Z_130_0_3 Z_130_0_4
 Z_111_0_0 Z_111_0_1 Z_111_0_2 Z_111_0_3 Z_111_0_4 Z_397_0_0 Z_397_0_1
 Z_397_0_2 Z_397_0_3 Z_397_0_4
End
